
Gurobi 9.0.1 (linux64) logging started Thu Apr 30 05:57:54 2020

Gurobi Optimizer version 9.0.1 build v9.0.1rc0 (linux64)
Optimize a model with 980 rows, 990 columns and 7152 nonzeros
Model fingerprint: 0x0a0ceef1
Variable types: 0 continuous, 990 integer (980 binary)
Coefficient statistics:
  Matrix range     [1e+00, 5e+00]
  Objective range  [1e+00, 1e+02]
  Bounds range     [1e+00, 1e+00]
  RHS range        [1e+00, 1e+00]

User MIP start produced solution with objective 501 (0.00s)
Loaded user MIP start with objective 501

Presolve removed 442 rows and 468 columns
Presolve time: 0.06s
Presolved: 538 rows, 522 columns, 4086 nonzeros
Variable types: 0 continuous, 522 integer (522 binary)

Root relaxation: objective 4.155241e+02, 395 iterations, 0.02 seconds

    Nodes    |    Current Node    |     Objective Bounds      |     Work
 Expl Unexpl |  Obj  Depth IntInf | Incumbent    BestBd   Gap | It/Node Time

     0     0  415.52414    0  151  501.00000  415.52414  17.1%     -    0s
     0     0  438.16727    0  172  501.00000  438.16727  12.5%     -    0s
     0     0  438.18168    0  162  501.00000  438.18168  12.5%     -    0s
     0     0  438.18168    0  163  501.00000  438.18168  12.5%     -    0s
     0     0  441.99570    0  177  501.00000  441.99570  11.8%     -    0s
     0     0  442.07249    0  177  501.00000  442.07249  11.8%     -    0s
     0     0  442.09191    0  174  501.00000  442.09191  11.8%     -    0s
     0     0  442.09191    0  174  501.00000  442.09191  11.8%     -    0s
     0     0  448.41675    0  185  501.00000  448.41675  10.5%     -    0s
     0     0  448.72987    0  185  501.00000  448.72987  10.4%     -    0s
     0     0  448.74452    0  184  501.00000  448.74452  10.4%     -    0s
     0     0  453.67352    0  193  501.00000  453.67352  9.45%     -    0s
     0     0  454.25151    0  181  501.00000  454.25151  9.33%     -    0s
     0     0  454.41057    0  187  501.00000  454.41057  9.30%     -    0s
     0     0  454.45019    0  186  501.00000  454.45019  9.29%     -    0s
     0     0  454.45079    0  186  501.00000  454.45079  9.29%     -    0s
     0     0  455.50049    0  184  501.00000  455.50049  9.08%     -    0s
     0     0  455.96061    0  187  501.00000  455.96061  8.99%     -    0s
     0     0  456.03429    0  196  501.00000  456.03429  8.98%     -    0s
     0     0  456.03484    0  197  501.00000  456.03484  8.98%     -    0s
     0     0  456.86097    0  193  501.00000  456.86097  8.81%     -    0s
     0     0  456.97444    0  197  501.00000  456.97444  8.79%     -    0s
     0     0  456.97465    0  198  501.00000  456.97465  8.79%     -    0s
     0     0  457.24979    0  190  501.00000  457.24979  8.73%     -    0s
     0     0  457.30723    0  192  501.00000  457.30723  8.72%     -    0s
     0     0  457.30842    0  193  501.00000  457.30842  8.72%     -    0s
     0     0  457.33405    0  191  501.00000  457.33405  8.72%     -    0s
     0     0  457.33405    0  191  501.00000  457.33405  8.72%     -    0s
     0     0  457.47378    0  151  501.00000  457.47378  8.69%     -    1s
     0     0  457.47378    0  184  501.00000  457.47378  8.69%     -    1s
     0     0  457.47378    0  183  501.00000  457.47378  8.69%     -    1s
     0     0  457.47378    0  181  501.00000  457.47378  8.69%     -    1s
     0     0  457.47378    0  180  501.00000  457.47378  8.69%     -    1s
     0     0  457.47378    0  184  501.00000  457.47378  8.69%     -    1s
     0     0  457.47378    0  181  501.00000  457.47378  8.69%     -    1s
     0     0  457.47378    0  199  501.00000  457.47378  8.69%     -    1s
     0     0  457.47378    0  195  501.00000  457.47378  8.69%     -    1s
     0     0  457.47378    0  198  501.00000  457.47378  8.69%     -    1s
     0     0  460.53388    0  183  501.00000  460.53388  8.08%     -    1s
     0     0  461.16335    0  197  501.00000  461.16335  7.95%     -    1s
     0     0  461.30500    0  193  501.00000  461.30500  7.92%     -    1s
     0     0  461.31179    0  196  501.00000  461.31179  7.92%     -    1s
     0     0  462.17187    0  193  501.00000  462.17187  7.75%     -    1s
     0     0  462.53270    0  199  501.00000  462.53270  7.68%     -    1s
     0     0  462.60791    0  196  501.00000  462.60791  7.66%     -    1s
     0     0  462.69255    0  202  501.00000  462.69255  7.65%     -    1s
     0     0  462.69935    0  202  501.00000  462.69935  7.64%     -    1s
     0     0  462.75137    0  196  501.00000  462.75137  7.63%     -    1s
     0     0  462.82972    0  195  501.00000  462.82972  7.62%     -    1s
     0     0  462.83914    0  191  501.00000  462.83914  7.62%     -    1s
     0     0  462.84719    0  203  501.00000  462.84719  7.62%     -    1s
     0     0  462.84719    0  202  501.00000  462.84719  7.62%     -    1s
     0     2  463.00445    0  200  501.00000  463.00445  7.58%     -    1s

Cutting planes:
  Clique: 1
  MIR: 18
  Zero half: 26
  RLT: 49

Explored 233 nodes (10330 simplex iterations) in 2.51 seconds
Thread count was 1 (of 40 available processors)

Solution count 1: 501 

Optimal solution found (tolerance 1.00e-04)
Best objective 5.010000000000e+02, best bound 5.010000000000e+02, gap 0.0000%

User-callback calls 1399, time in user-callback 0.00 sec
